(set-logic QF_BV)
(declare-fun ADDRS_3 () (_ BitVec 8))
(declare-fun CLK_2 () (_ BitVec 1))
(declare-fun CLK_3 () (_ BitVec 1))
(declare-fun CLK_4 () (_ BitVec 1))
(declare-fun CLK_5 () (_ BitVec 1))
(declare-fun FLG_4 () (_ BitVec 1))
(declare-fun RESET_2 () (_ BitVec 1))
(declare-fun RESET_3 () (_ BitVec 1))
(declare-fun RESET_4 () (_ BitVec 1))
(declare-fun RESET_5 () (_ BitVec 1))
(declare-fun RESET_GEN_0 () (_ BitVec 1))
(declare-fun TMP_FLG_3 () (_ BitVec 4))
(declare-fun TMP_RST_2 () (_ BitVec 1))
(declare-fun WRITE1_3 () (_ BitVec 1))
(define-fun $e1 () (_ BitVec 8) (_ bv16 8))
(define-fun $e2 () (_ BitVec 8) (_ bv0 8))
(define-fun $e3 () (_ BitVec 4) (_ bv0 4))
(define-fun $e4 () (_ BitVec 4) (_ bv14 4))
(define-fun $e5 () (_ BitVec 1) (ite (= CLK_2 CLK_3) #b1 #b0))
(define-fun $e6 () (_ BitVec 1) (ite (= RESET_2 RESET_3) #b1 #b0))
(define-fun $e7 () (_ BitVec 1) (bvand $e5 $e6))
(define-fun $e8 () (_ BitVec 1) (bvand CLK_2 (bvnot $e5)))
(define-fun $e9 () (_ BitVec 1) (ite (= CLK_3 CLK_4) #b1 #b0))
(define-fun $e10 () (_ BitVec 1) (ite (= RESET_3 RESET_4) #b1 #b0))
(define-fun $e11 () (_ BitVec 1) (bvand $e9 $e10))
(define-fun $e12 () (_ BitVec 1) (bvand CLK_3 (bvnot $e9)))
(define-fun $e13 () (_ BitVec 1) (ite (= CLK_4 CLK_5) #b1 #b0))
(define-fun $e14 () (_ BitVec 1) (ite (= RESET_4 RESET_5) #b1 #b0))
(define-fun $e15 () (_ BitVec 1) (bvand $e13 $e14))
(define-fun $e16 () (_ BitVec 1) (bvand CLK_4 (bvnot $e13)))
(define-fun $e17 () (_ BitVec 1) (bvand FLG_4 (bvnot $e16)))
(define-fun $e18 () (_ BitVec 1) (bvand (bvnot RESET_4) $e17))
(define-fun $e19 () (_ BitVec 1) (bvand (bvnot FLG_4) $e15))
(define-fun $e20 () (_ BitVec 1) (bvand (bvnot $e15) (bvnot $e18)))
(define-fun $e21 () (_ BitVec 1) (bvand (bvnot $e19) (bvnot $e20)))
(define-fun $e22 () (_ BitVec 1) (ite (= ADDRS_3 $e1) #b1 #b0))
(define-fun $e23 () (_ BitVec 1) (bvand WRITE1_3 (bvnot $e22)))
(define-fun $e24 () (_ BitVec 1) (bvand $e21 $e23))
(define-fun $e25 () (_ BitVec 1) (bvand (bvnot WRITE1_3) (bvnot $e21)))
(define-fun $e26 () (_ BitVec 1) (bvand (bvnot $e24) (bvnot $e25)))
(define-fun $e27 () (_ BitVec 1) (bvand $e12 (bvnot $e26)))
(define-fun $e28 () (_ BitVec 1) (bvand (bvnot WRITE1_3) (bvnot $e12)))
(define-fun $e29 () (_ BitVec 1) (bvand (bvnot $e27) (bvnot $e28)))
(define-fun $e30 () (_ BitVec 1) (bvand (bvnot RESET_3) (bvnot $e29)))
(define-fun $e31 () (_ BitVec 1) (bvand (bvnot WRITE1_3) $e11))
(define-fun $e32 () (_ BitVec 1) (bvand (bvnot $e11) $e30))
(define-fun $e33 () (_ BitVec 1) (bvand (bvnot $e31) (bvnot $e32)))
(define-fun $e34 () (_ BitVec 1) (ite (= ADDRS_3 $e2) #b1 #b0))
(define-fun $e35 () (_ BitVec 1) (ite (= ADDRS_3 (bvnot $e2)) #b1 #b0))
(define-fun $e36 () (_ BitVec 1) (bvand (bvnot $e34) (bvnot $e35)))
(define-fun $e37 () (_ BitVec 1) (bvand WRITE1_3 $e36))
(define-fun $e38 () (_ BitVec 1) (bvand (bvnot WRITE1_3) (bvnot $e34)))
(define-fun $e39 () (_ BitVec 1) (bvand (bvnot $e37) (bvnot $e38)))
(define-fun $e40 () (_ BitVec 1) (bvand $e12 (bvnot $e39)))
(define-fun $e41 () (_ BitVec 1) (bvand (bvnot $e12) (bvnot $e34)))
(define-fun $e42 () (_ BitVec 1) (bvand (bvnot $e40) (bvnot $e41)))
(define-fun $e43 () (_ BitVec 1) (bvand (bvnot RESET_3) $e42))
(define-fun $e44 () (_ BitVec 1) (bvand $e11 (bvnot $e34)))
(define-fun $e45 () (_ BitVec 1) (bvand (bvnot $e11) (bvnot $e43)))
(define-fun $e46 () (_ BitVec 1) (bvand (bvnot $e44) (bvnot $e45)))
(define-fun $e47 () (_ BitVec 1) (ite (= TMP_FLG_3 $e3) #b1 #b0))
(define-fun $e48 () (_ BitVec 1) (ite (= TMP_FLG_3 (bvnot $e4)) #b1 #b0))
(define-fun $e49 () (_ BitVec 1) (bvand (bvnot $e34) $e47))
(define-fun $e50 () (_ BitVec 1) (bvand WRITE1_3 (bvnot $e49)))
(define-fun $e51 () (_ BitVec 1) (bvand (bvnot WRITE1_3) (bvnot $e47)))
(define-fun $e52 () (_ BitVec 1) (bvand (bvnot $e50) (bvnot $e51)))
(define-fun $e53 () (_ BitVec 1) (bvand $e12 (bvnot $e52)))
(define-fun $e54 () (_ BitVec 1) (bvand (bvnot $e12) (bvnot $e47)))
(define-fun $e55 () (_ BitVec 1) (bvand (bvnot $e53) (bvnot $e54)))
(define-fun $e56 () (_ BitVec 1) (bvand (bvnot RESET_3) (bvnot $e55)))
(define-fun $e57 () (_ BitVec 1) (bvand $e11 (bvnot $e47)))
(define-fun $e58 () (_ BitVec 1) (bvand (bvnot $e11) $e56))
(define-fun $e59 () (_ BitVec 1) (bvand (bvnot $e57) (bvnot $e58)))
(define-fun $e60 () (_ BitVec 1) (bvand $e34 (bvnot $e47)))
(define-fun $e61 () (_ BitVec 1) (bvand (bvnot $e34) (bvnot $e48)))
(define-fun $e62 () (_ BitVec 1) (bvand (bvnot $e60) (bvnot $e61)))
(define-fun $e63 () (_ BitVec 1) (bvand WRITE1_3 (bvnot $e62)))
(define-fun $e64 () (_ BitVec 1) (bvand (bvnot WRITE1_3) (bvnot $e48)))
(define-fun $e65 () (_ BitVec 1) (bvand (bvnot $e63) (bvnot $e64)))
(define-fun $e66 () (_ BitVec 1) (bvand $e12 (bvnot $e65)))
(define-fun $e67 () (_ BitVec 1) (bvand (bvnot $e12) (bvnot $e48)))
(define-fun $e68 () (_ BitVec 1) (bvand (bvnot $e66) (bvnot $e67)))
(define-fun $e69 () (_ BitVec 1) (bvand (bvnot RESET_3) $e68))
(define-fun $e70 () (_ BitVec 1) (bvand $e11 (bvnot $e48)))
(define-fun $e71 () (_ BitVec 1) (bvand (bvnot $e11) (bvnot $e69)))
(define-fun $e72 () (_ BitVec 1) (bvand (bvnot $e70) (bvnot $e71)))
(define-fun $e73 () (_ BitVec 1) (ite (= RESET_GEN_0 TMP_RST_2) #b1 #b0))
(define-fun $e74 () (_ BitVec 1) (bvand (bvnot RESET_GEN_0) $e72))
(define-fun $e75 () (_ BitVec 1) (bvand (bvnot $e72) (bvnot $e73)))
(define-fun $e76 () (_ BitVec 1) (bvand (bvnot $e74) (bvnot $e75)))
(define-fun $e77 () (_ BitVec 1) (bvand (bvnot RESET_GEN_0) $e59))
(define-fun $e78 () (_ BitVec 1) (bvand (bvnot $e59) (bvnot $e76)))
(define-fun $e79 () (_ BitVec 1) (bvand (bvnot $e77) (bvnot $e78)))
(define-fun $e80 () (_ BitVec 1) (bvand $e46 (bvnot $e79)))
(define-fun $e81 () (_ BitVec 1) (bvand (bvnot $e46) (bvnot $e73)))
(define-fun $e82 () (_ BitVec 1) (bvand (bvnot $e80) (bvnot $e81)))
(define-fun $e83 () (_ BitVec 1) (bvand $e33 (bvnot $e82)))
(define-fun $e84 () (_ BitVec 1) (bvand (bvnot $e33) (bvnot $e73)))
(define-fun $e85 () (_ BitVec 1) (bvand (bvnot $e83) (bvnot $e84)))
(define-fun $e86 () (_ BitVec 1) (bvand $e8 (bvnot $e85)))
(define-fun $e87 () (_ BitVec 1) (bvand (bvnot $e8) (bvnot $e73)))
(define-fun $e88 () (_ BitVec 1) (bvand (bvnot $e86) (bvnot $e87)))
(define-fun $e89 () (_ BitVec 1) (bvand RESET_2 RESET_GEN_0))
(define-fun $e90 () (_ BitVec 1) (bvand (bvnot RESET_2) (bvnot $e88)))
(define-fun $e91 () (_ BitVec 1) (bvand $e7 (bvnot $e73)))
(define-fun $e92 () (_ BitVec 1) (bvand (bvnot $e7) $e89))
(assert (not (= (bvnot $e91) #b0)))
(assert (not (= (bvnot $e92) #b0)))
(assert (not (= (bvnot $e90) #b0)))
(check-sat)
(exit)
